\* Problem: Unknown *\

Maximize
 obj: + xp_0_0 + xp_0_1 + xp_0_2 + xp_0_3 + xp_0_4 + xp_0_5 + xp_0_6
 + xp_1_0 + xp_1_1 + xp_1_2 + xp_2_0 + xp_2_1 + xp_2_2 + xp_2_3 + xp_2_4
 + xp_3_0 + xp_3_1 + xp_3_2 + xp_4_0 + xp_5_0 + xp_5_1 + xp_5_2 + xp_6_0
 + xp_6_1 + xp_6_2 + xp_6_3 + xp_7_0 + xp_7_1 + xp_8_0 + xp_8_1 + xp_9_0
 + xp_10_0 + xp_10_1 + xp_11_0 + xp_11_1 + xp_11_2 + xp_11_3 + xp_11_4
 + xp_12_0 + xp_13_0 + xp_13_1 + xp_14_0 + xp_14_1 + xp_15_0 + xp_16_0
 + xp_17_0 + xp_17_1 + xp_17_2 + xp_17_3 + xp_17_4 + xp_17_5 + xp_18_0
 + xp_18_1 + xp_18_2 + xp_18_3 + xp_19_0 + xp_19_1 + xp_19_2 + xp_19_3
 + xp_19_4 + xp_19_5 + xp_19_6 + xp_20_0 + xp_20_1 + xp_20_2 + xp_20_3
 + xp_21_0 + xp_21_1 + xp_21_2 + xp_21_3 + xp_21_4 + xp_22_0 + xp_22_1
 + xp_22_2 + xp_22_3 + xp_22_4 + xp_22_5 + xp_23_0 + xp_23_1 + xp_23_2
 + xp_23_3

Subject To
 r_1: 0 xp_0_0 <= 29.0077821011673
 r_2: + xp_22_3 + xp_18_1 + xp_5_2 + xp_2_4 <= 29.0077821011673
 r_3: + xp_21_3 + xp_6_1 <= 30
 r_4: + xp_18_3 + xp_17_2 + xp_15_0 <= 30
 r_5: + xp_18_0 <= 27.9004491017964
 r_6: + xp_18_2 <= 29.4574468085106
 r_7: + xp_20_3 <= 29.0077821011673
 r_8: + xp_17_3 + xp_11_3 + xp_6_2 + xp_5_1 + xp_3_2 + xp_2_1
 <= 29.0077821011673
 r_9: + xp_23_2 + xp_17_4 + xp_11_1 + xp_6_3 + xp_3_1
 <= 29.4574468085106
 r_10: + xp_11_4 + xp_3_0 <= 29.4574468085106
 r_11: + xp_18_2 + xp_11_2 <= 27.9004491017964
 r_12: + xp_11_0 <= 29.4574468085106
 r_13: 0 xp_0_0 <= 29.4574468085106
 r_14: + xp_21_4 + xp_19_4 + xp_14_0 + xp_0_3 + xp_0_1
 <= 29.0077821011673
 r_15: + xp_21_0 + xp_19_3 <= 29.0077821011673
 r_16: + xp_23_3 + xp_22_2 + xp_21_1 + xp_19_6 + xp_0_6 + xp_0_4
 + xp_0_2 <= 29.0077821011673
 r_17: + xp_0_0 <= 27.9004491017964
 r_18: + xp_21_3 + xp_4_0 <= 29.0077821011673
 r_19: + xp_19_0 <= 29.0077821011673
 r_20: + xp_21_2 + xp_19_5 + xp_19_2 + xp_19_1 + xp_14_1 + xp_0_5
 <= 29.0077821011673
 r_21: + xp_20_1 <= 29.0077821011673
 r_22: + xp_21_4 + xp_7_1 <= 29.0077821011673
 r_23: + xp_22_5 + xp_22_3 + xp_17_3 <= 29.0077821011673
 r_24: + xp_6_2 + xp_3_2 + xp_0_3 <= 29.0077821011673
 r_25: 0 xp_0_0 <= 29.0077821011673
 r_26: + xp_18_1 + xp_0_5 + xp_0_1 <= 27.9004491017964
 r_27: + xp_11_3 <= 29.0077821011673
 r_28: + xp_19_4 + xp_19_1 + xp_10_1 <= 29.0077821011673
 r_29: + xp_20_2 <= 29.0077821011673
 r_30: + xp_2_0 <= 29.0077821011673
 r_31: + xp_23_2 + xp_17_4 + xp_6_3 + xp_6_1 + xp_3_1 + xp_2_3 <= 30
 r_32: + xp_2_2 <= 30
 r_33: + xp_11_1 + xp_2_4 <= 30
 r_34: + xp_19_6 + xp_19_5 + xp_19_3 + xp_2_1 <= 29.4574468085106
 r_35: 0 xp_0_0 <= 29.0077821011673
 r_36: + xp_9_0 <= 29.0077821011673
 r_37: + xp_21_1 + xp_19_6 + xp_13_1 + xp_8_1 + xp_0_6 <= 30
 r_38: + xp_23_3 + xp_1_1 <= 30
 r_39: + xp_17_3 + xp_17_1 + xp_0_4 <= 30
 r_40: + xp_0_2 <= 27.9004491017964
 r_41: + xp_12_0 + xp_2_3 <= 29.0077821011673
 r_42: + xp_21_1 + xp_19_6 <= 30
 r_43: + xp_16_0 <= 30
 r_44: + xp_23_2 + xp_23_1 + xp_22_4 + xp_1_2 <= 30
 r_45: + xp_17_4 + xp_3_2 + xp_3_1 <= 30
 r_46: + xp_0_6 + xp_0_3 <= 27.9004491017964
 r_47: + xp_22_4 + xp_22_1 + xp_13_1 <= 30
 r_48: + xp_13_0 <= 30
 r_49: + xp_17_5 <= 30
 r_50: 0 xp_0_0 <= 27.9004491017964
 r_51: + xp_8_1 + xp_1_1 <= 30
 r_52: + xp_8_0 + xp_1_2 <= 30
 r_53: + xp_1_0 <= 30
 r_54: + xp_18_3 + xp_0_4 <= 27.9004491017964
 r_55: + xp_11_4 <= 30
 r_56: 0 xp_0_0 <= 29.4574468085106
 r_57: + xp_23_3 + xp_22_2 <= 27.9004491017964
 r_58: + xp_22_5 + xp_5_0 <= 27.9004491017964
 r_59: + xp_22_0 + xp_17_1 <= 27.9004491017964
 r_60: + xp_23_1 + xp_22_4 + xp_6_0 <= 27.9004491017964
 r_61: + xp_23_0 + xp_22_1 + xp_17_5 <= 27.9004491017964
 r_62: + xp_17_0 <= 27.9004491017964
 r_63: + xp_22_3 + xp_17_2 + xp_11_2 + xp_6_1 + xp_5_2
 <= 27.9004491017964
 r_64: + xp_23_2 + xp_17_4 + xp_17_3 + xp_6_3 + xp_6_2 + xp_5_1
 <= 27.9004491017964
 r_65: + xp_20_1 + xp_19_1 + xp_14_1 + xp_10_1 + xp_7_1 + xp_2_2
 + xp_0_5 <= 29.0077821011673
 r_66: + xp_21_2 + xp_20_2 + xp_19_5 + xp_7_0 <= 30
 r_67: + xp_20_3 + xp_19_2 + xp_10_0 <= 29.4574468085106
 r_68: + xp_20_0 <= 29.0077821011673

Bounds
 0 <= xp_0_0 <= 27.4950314794341
 0 <= xp_0_1 <= 2.0278184189446
 0 <= xp_0_2 <= 14.2544703444532
 0 <= xp_0_3 <= 4.32404949321752
 0 <= xp_0_4 <= 3.31014028374523
 0 <= xp_0_5 <= 6.35186791216212
 0 <= xp_0_6 <= 3.31014028374523
 0 <= xp_1_0 <= 20.4075444717347
 0 <= xp_1_1 <= 12.8230531409921
 0 <= xp_1_2 <= 0.964210763252147
 0 <= xp_2_0 <= 21.6699790137106
 0 <= xp_2_1 <= 3.31014028374523
 0 <= xp_2_2 <= 0.904568655619625
 0 <= xp_2_3 <= 1.80913731123925
 0 <= xp_2_4 <= 6.0238462506041
 0 <= xp_3_0 <= 24.3836982211306
 0 <= xp_3_1 <= 4.52285651865926
 0 <= xp_3_2 <= 2.42543246982807
 0 <= xp_4_0 <= 25.4472992565425
 0 <= xp_5_0 <= 19.0854744424069
 0 <= xp_5_1 <= 3.18091240706781
 0 <= xp_5_2 <= 3.18091240706781
 0 <= xp_6_0 <= 11.4512846654441
 0 <= xp_6_1 <= 5.72564233272206
 0 <= xp_6_2 <= 2.86282116636103
 0 <= xp_6_3 <= 2.86282116636103
 0 <= xp_7_0 <= 16.4612217065759
 0 <= xp_7_1 <= 5.48707390219197
 0 <= xp_8_0 <= 17.2564498083429
 0 <= xp_8_1 <= 2.46520711547755
 0 <= xp_9_0 <= 18.2902463406399
 0 <= xp_10_0 <= 16.0039655480599
 0 <= xp_10_1 <= 2.28628079257999
 0 <= xp_11_0 <= 26.4811222699618
 0 <= xp_11_1 <= 11.7793063270021
 0 <= xp_11_2 <= 7.23657572607927
 0 <= xp_11_3 <= 11.1630111684133
 0 <= xp_11_4 <= 1.23259031717764
 0 <= xp_12_0 <= 17.1769269981662
 0 <= xp_13_0 <= 14.6123163699678
 0 <= xp_13_1 <= 2.08747376713825
 0 <= xp_14_0 <= 13.9164917809217
 0 <= xp_14_1 <= 1.98807025441738
 0 <= xp_15_0 <= 15.7455164149857
 0 <= xp_16_0 <= 15.1093339335721
 0 <= xp_17_0 <= 27.6043720332868
 0 <= xp_17_1 <= 7.74353033081542
 0 <= xp_17_2 <= 2.2166950235351
 0 <= xp_17_3 <= 2.2166950235351
 0 <= xp_17_4 <= 2.2166950235351
 0 <= xp_17_5 <= 2.2166950235351
 0 <= xp_18_0 <= 21.8389682954764
 0 <= xp_18_1 <= 5.93437977901504
 0 <= xp_18_2 <= 12.5546603465055
 0 <= xp_18_3 <= 1.97812659300501
 0 <= xp_19_0 <= 28.3996067553343
 0 <= xp_19_1 <= 1.91848448537249
 0 <= xp_19_2 <= 3.83696897074498
 0 <= xp_19_3 <= 1.91848448537249
 0 <= xp_19_4 <= 1.91848448537249
 0 <= xp_19_5 <= 1.91848448537249
 0 <= xp_19_6 <= 1.91848448537249
 0 <= xp_20_0 <= 26.8091439315198
 0 <= xp_20_1 <= 5.12922125639685
 0 <= xp_20_2 <= 3.63816194530324
 0 <= xp_20_3 <= 5.45724291795486
 0 <= xp_21_0 <= 28.0815155146275
 0 <= xp_21_1 <= 1.60039324466571
 0 <= xp_21_2 <= 3.20078648933142
 0 <= xp_21_3 <= 3.20078648933142
 0 <= xp_21_4 <= 3.20078648933142
 0 <= xp_22_0 <= 18.8469060118768
 0 <= xp_22_1 <= 3.31014028374523
 0 <= xp_22_2 <= 1.40158621922397
 0 <= xp_22_3 <= 4.7117265029692
 0 <= xp_22_4 <= 3.31014028374523
 0 <= xp_22_5 <= 6.11331272219317
 0 <= xp_23_0 <= 22.157046295622
 0 <= xp_23_1 <= 12.7335932896836
 0 <= xp_23_2 <= 1.40158621922397
 0 <= xp_23_3 <= 1.40158621922397

End
